c User generated cnf file
p cnf 9 37
2 5 -3 0 
2 -8 8 0 
1 -9 3 0 
-1 7 7 0 
-9 1 2 0 
2 -2 2 0 
1 -3 4 0 
1 7 -8 0 
5 5 -6 0 
5 1 -3 0 
8 8 -9 0 
3 -3 3 0 
-6 7 1 0 
8 3 -4 0 
6 7 -6 0 
8 9 -9 0 
7 -1 1 0 
8 7 -5 0 
-7 5 6 0 
-1 6 4 0 
5 8 -7 0 
-4 1 3 0 
3 1 -5 0 
-3 4 2 0 
9 -9 4 0 
-5 3 9 0 
-4 1 4 0 
-9 6 6 0 
6 -9 3 0 
4 9 -4 0 
-8 7 9 0 
9 -7 3 0 
-4 4 9 0 
-2 7 5 0 
2 8 -8 0 
5 7 -7 0 
-5 3 3 0 
